800 800
400.00 400.00
404.39 402.40
405.40 408.41
401.06 414.96
391.68 418.19
379.97 414.96
370.30 404.23
367.22 387.72
373.85 369.73
390.51 356.01
414.18 352.05
438.98 361.20
457.61 383.24
463.48 413.98
452.77 445.99
426.00 470.35
388.36 479.15
348.83 467.87
318.00 437.09
305.27 392.86
316.09 345.60
350.07 307.63
400.49 290.00
455.58 299.32
501.26 335.61
524.72 391.71
517.97 454.62
480.31 508.51
419.14 538.69
348.54 535.56
286.05 497.54
248.34 432.00
246.77 353.94
284.10 282.56
353.22 236.56
438.40 229.27
518.86 264.82
573.81 336.64
587.85 428.48
555.18 518.08
481.62 582.59
383.69 604.35
284.98 575.70
210.41 501.40
180.01 398.05
203.51 290.39
277.45 205.37
385.45 165.45
501.80 182.66
597.57 255.12
647.80 366.91
638.00 491.56
568.20 598.27
453.57 659.53
321.12 658.22
203.41 592.29
130.47 475.85
122.23 336.23
183.06 207.55
300.20 122.40
